22,26,16,97,1,63,48,29,36,98,41,54,10,85,57,4,19,38,0,18,15,64,55,33,84,52,13,86,99,17,59,77,30,9,25,20,46,88,75,73,8,32,66,12,2,93,79,70,50,43,87,61,37,58,78,35,89,67,40,3,94,90,42,44,71,62,80,45,53,23,49,68,83,69,31,91,51,14,82,7,56,65,39,24,5,76,6,95,47,21,81,34,92,96,27,74,60,11,28,72